EUCLIDEAN
25
3.7 1.2
6.8 7.4
2.9 4.3
8.1 5.2
5.4 9.0
1.0 2.3
9.2 3.8
4.5 6.0
7.1 8.7
2.0 5.3
4.1 1.8
8.9 6.3
3.4 2.5
5.8 7.6
1.7 4.9
6.5 3.2
9.4 5.9
2.1 1.3
7.9 4.7
3.5 8.2
5.7 6.8
1.6 9.1
4.2 2.4
8.0 7.0
6.2 4.6